Step 2/6S/22 14 21 29 33 39/Cluster 6/VRPwTW.sol
Total_Cost = 4015

X :=
Kostroma_7Continent   Yaroslavl_Magnit      1   1
Kostroma_ASHAN        Yekaterinburg_ASHANm  1   1
MoscowDepot           Yaroslavl_ASHANn      1   1
Perm_LENTA            Kostroma_7Continent   1   1
Pyshma_Perekrestok    Yekaterinburg_ASHANh  1   1
Yaroslavl_7Continent  MoscowDepot           1   1
Yaroslavl_ASHANn      Kostroma_ASHAN        1   1
Yaroslavl_ASHANp      Yaroslavl_LENTA1      1   1
Yaroslavl_ATAK        Yaroslavl_ASHANp      1   1
Yaroslavl_Giperglobus Yaroslavl_7Continent  1   1
Yaroslavl_LENTA       Yaroslavl_Giperglobus 1   1
Yaroslavl_LENTA1      Yaroslavl_LENTA       1   1
Yaroslavl_Magnit      Yaroslavl_ATAK        1   1
Yekaterinburg_ASHANh  Perm_LENTA            1   1
Yekaterinburg_ASHANm  Pyshma_Perekrestok    1   1
;

Served :=
Kostroma_7Continent   11   1
Kostroma_ASHAN        9    1
Perm_LENTA            10   1
Pyshma_Perekrestok    10   1
Yaroslavl_7Continent  11   1
Yaroslavl_ASHANn      9    1
Yaroslavl_ASHANp      11   1
Yaroslavl_ATAK        11   1
Yaroslavl_Giperglobus 11   1
Yaroslavl_LENTA       11   1
Yaroslavl_LENTA1      11   1
Yaroslavl_Magnit      11   1
Yekaterinburg_ASHANh  10   1
Yekaterinburg_ASHANm  10   1
;

ATime :=
Kostroma_7Continent   1   248.59
Kostroma_ASHAN        1   204
MoscowDepot           1   255.71
Perm_LENTA            1   233.86
Pyshma_Perekrestok    1   225.87
Yaroslavl_7Continent  1   252.08
Yaroslavl_ASHANn      1   202.72
Yaroslavl_ASHANp      1   250.43
Yaroslavl_ATAK        1   249.97
Yaroslavl_Giperglobus 1   251.47
Yaroslavl_LENTA       1   251.11
Yaroslavl_LENTA1      1   250.71
Yaroslavl_Magnit      1   249.69
Yekaterinburg_ASHANh  1   228.82
Yekaterinburg_ASHANm  1   223
;

DTime :=
Kostroma_7Continent   1   248.79
Kostroma_ASHAN        1   204.2
MoscowDepot           1   199.39
Perm_LENTA            1   234.06
Pyshma_Perekrestok    1   226.07
Yaroslavl_7Continent  1   252.28
Yaroslavl_ASHANn      1   202.92
Yaroslavl_ASHANp      1   250.63
Yaroslavl_ATAK        1   250.17
Yaroslavl_Giperglobus 1   251.67
Yaroslavl_LENTA       1   251.31
Yaroslavl_LENTA1      1   250.91
Yaroslavl_Magnit      1   249.89
Yekaterinburg_ASHANh  1   229.02
Yekaterinburg_ASHANm  1   223.2
;

RouteDuration [*] :=
1  53.52
;

WTime :=
Kostroma_7Continent   1   0
Kostroma_ASHAN        1   0
MoscowDepot           1   0
Perm_LENTA            1   0
Pyshma_Perekrestok    1   0
Yaroslavl_7Continent  1   0
Yaroslavl_ASHANn      1   0
Yaroslavl_ASHANp      1   0
Yaroslavl_ATAK        1   0
Yaroslavl_Giperglobus 1   0
Yaroslavl_LENTA       1   0
Yaroslavl_LENTA1      1   0
Yaroslavl_Magnit      1   0
Yekaterinburg_ASHANh  1   0
Yekaterinburg_ASHANm  1   0
;
